p td 22 81
2 1
4 1
5 4
5 2
5 3
6 5
6 1
7 6
8 1
8 4
9 2
9 4
9 7
10 6
10 7
11 3
11 4
11 1
11 6
11 9
11 7
12 11
12 7
12 8
13 9
13 3
13 2
14 13
14 8
14 10
15 14
15 11
15 8
15 2
16 1
16 13
16 4
17 12
17 10
17 4
17 6
17 8
17 3
17 16
17 2
18 9
18 8
18 3
18 1
18 14
18 12
18 7
19 4
19 7
19 5
19 18
19 9
19 14
20 3
20 17
20 1
20 15
20 13
20 11
21 4
21 3
21 2
21 15
21 7
21 10
22 15
22 13
22 3
22 16
22 19
22 1
22 21
22 4
22 12
22 20
22 7
